NAME 
ROWS
 N  OBJ
 L  R0      
 E  R1      
 E  R2      
 E  R3      
 E  R4      
 E  R5      
 E  R6      
 E  R7      
 E  R8      
 E  R9      
 E  R10     
 E  R11     
 E  R12     
 E  R13     
 E  R14     
 E  R15     
 E  R16     
 E  R17     
 E  R18     
 E  R19     
 E  R20     
 E  R21     
 E  R22     
 E  R23     
 E  R24     
 E  R25     
COLUMNS
    MARKER    'MARKER'                 'INTORG'
    I0(8)     OBJ       -196
    I0(8)     R0        183
    I0(8)     R2        13
    I0(8)     R3        7
    I0(8)     R5        14
    I0(8)     R7        9
    I0(8)     R8        13
    I0(8)     R9        16
    I0(8)     R25       1
    I1(9)     OBJ       -33
    I1(9)     R0        -78
    I1(9)     R1        7
    I1(9)     R2        15
    I1(9)     R4        18
    I1(9)     R5        9
    I1(9)     R8        14
    I1(9)     R9        15
    I1(9)     R10       13
    I1(9)     R25       1
    I2(11)    OBJ       -1
    I2(11)    R0        -62
    I2(11)    R1        19
    I2(11)    R2        2
    I2(11)    R3        4
    I2(11)    R4        16
    I2(11)    R5        13
    I2(11)    R6        7
    I2(11)    R7        4
    I2(11)    R8        19
    I2(11)    R9        7
    I2(11)    R25       1
    I3(5)     OBJ       38
    I3(5)     R0        145
    I3(5)     R5        11
    I3(5)     R9        2
    I3(5)     R10       8
    I3(5)     R25       1
    I4(5)     OBJ       -9
    I4(5)     R0        153
    I4(5)     R1        8
    I4(5)     R6        17
    I4(5)     R8        4
    I4(5)     R25       1
    I5(10)    OBJ       -173
    I5(10)    R0        -43
    I5(10)    R2        -1
    I5(10)    R3        4
    I5(10)    R4        14
    I5(10)    R5        3
    I5(10)    R7        5
    I5(10)    R8        1
    I5(10)    R9        15
    I5(10)    R10       17
    I5(10)    R25       1
    I6(8)     OBJ       -131
    I6(8)     R0        187
    I6(8)     R2        11
    I6(8)     R3        12
    I6(8)     R4        2
    I6(8)     R6        19
    I6(8)     R7        16
    I6(8)     R8        2
    I6(8)     R25       1
    I7(8)     OBJ       -37
    I7(8)     R0        199
    I7(8)     R1        1
    I7(8)     R2        2
    I7(8)     R3        17
    I7(8)     R5        14
    I7(8)     R6        8
    I7(8)     R10       12
    I7(8)     R25       1
    I8(6)     OBJ       -190
    I8(6)     R0        158
    I8(6)     R3        7
    I8(6)     R4        10
    I8(6)     R7        19
    I8(6)     R8        13
    I8(6)     R25       1
    I9(7)     OBJ       -124
    I9(7)     R0        68
    I9(7)     R1        18
    I9(7)     R6        17
    I9(7)     R7        10
    I9(7)     R9        3
    I9(7)     R10       2
    I9(7)     R25       1
    MARKER    'MARKER'                 'INTEND'
    C10(10)   OBJ       -4
    C10(10)   R0        7
    C10(10)   R7        2
    C10(10)   R8        18
    C10(10)   R9        14
    C10(10)   R10       13
    C10(10)   R11       3
    C10(10)   R16       11
    C10(10)   R17       15
    C10(10)   R19       18
    C10(10)   R22       9
    C11(12)   OBJ       -8
    C11(12)   R0        -4
    C11(12)   R5        12
    C11(12)   R6        5
    C11(12)   R7        1
    C11(12)   R8        5
    C11(12)   R9        10
    C11(12)   R10       16
    C11(12)   R11       10
    C11(12)   R12       9
    C11(12)   R19       13
    C11(12)   R21       16
    C11(12)   R24       11
    C12(16)   OBJ       4
    C12(16)   R0        -10
    C12(16)   R2        14
    C12(16)   R3        -1
    C12(16)   R5        10
    C12(16)   R6        1
    C12(16)   R7        3
    C12(16)   R8        5
    C12(16)   R10       7
    C12(16)   R11       4
    C12(16)   R13       1
    C12(16)   R14       3
    C12(16)   R17       3
    C12(16)   R18       12
    C12(16)   R19       8
    C12(16)   R21       13
    C12(16)   R22       8
    C13(12)   OBJ       -10
    C13(12)   R0        3
    C13(12)   R3        9
    C13(12)   R6        4
    C13(12)   R7        19
    C13(12)   R9        17
    C13(12)   R13       -1
    C13(12)   R15       16
    C13(12)   R17       9
    C13(12)   R19       13
    C13(12)   R21       19
    C13(12)   R23       14
    C13(12)   R24       2
    C14(14)   OBJ       -7
    C14(14)   R0        2
    C14(14)   R5        16
    C14(14)   R6        15
    C14(14)   R7        10
    C14(14)   R8        3
    C14(14)   R11       19
    C14(14)   R12       6
    C14(14)   R16       4
    C14(14)   R17       9
    C14(14)   R18       -1
    C14(14)   R20       15
    C14(14)   R21       12
    C14(14)   R23       1
    C14(14)   R24       -1
    C15(11)   OBJ       -6
    C15(11)   R0        -5
    C15(11)   R1        9
    C15(11)   R2        -1
    C15(11)   R4        3
    C15(11)   R7        12
    C15(11)   R9        5
    C15(11)   R11       14
    C15(11)   R18       8
    C15(11)   R20       18
    C15(11)   R22       7
    C15(11)   R24       11
    C16(15)   OBJ       -7
    C16(15)   R0        5
    C16(15)   R1        17
    C16(15)   R3        15
    C16(15)   R5        -1
    C16(15)   R6        18
    C16(15)   R9        6
    C16(15)   R10       8
    C16(15)   R12       6
    C16(15)   R16       -1
    C16(15)   R17       18
    C16(15)   R19       3
    C16(15)   R21       11
    C16(15)   R22       -1
    C16(15)   R23       6
    C16(15)   R24       9
    C17(12)   OBJ       3
    C17(12)   R0        2
    C17(12)   R1        19
    C17(12)   R3        8
    C17(12)   R4        19
    C17(12)   R5        19
    C17(12)   R7        19
    C17(12)   R9        6
    C17(12)   R11       14
    C17(12)   R13       17
    C17(12)   R15       10
    C17(12)   R21       -1
    C17(12)   R24       17
    C18(13)   OBJ       -10
    C18(13)   R0        2
    C18(13)   R3        18
    C18(13)   R6        3
    C18(13)   R11       10
    C18(13)   R12       11
    C18(13)   R13       1
    C18(13)   R14       2
    C18(13)   R15       3
    C18(13)   R16       8
    C18(13)   R18       6
    C18(13)   R20       4
    C18(13)   R21       17
    C18(13)   R22       -1
    C19(14)   OBJ       3
    C19(14)   R0        7
    C19(14)   R1        19
    C19(14)   R2        9
    C19(14)   R4        7
    C19(14)   R5        15
    C19(14)   R8        10
    C19(14)   R9        1
    C19(14)   R10       18
    C19(14)   R14       7
    C19(14)   R15       13
    C19(14)   R17       3
    C19(14)   R18       11
    C19(14)   R19       5
    C19(14)   R23       15
    C20(15)   OBJ       -8
    C20(15)   R0        5
    C20(15)   R1        -1
    C20(15)   R2        10
    C20(15)   R3        2
    C20(15)   R4        11
    C20(15)   R8        7
    C20(15)   R9        19
    C20(15)   R10       -1
    C20(15)   R12       11
    C20(15)   R14       19
    C20(15)   R17       4
    C20(15)   R18       12
    C20(15)   R19       1
    C20(15)   R20       18
    C20(15)   R23       5
    C21(15)   OBJ       -5
    C21(15)   R0        7
    C21(15)   R1        2
    C21(15)   R2        1
    C21(15)   R4        3
    C21(15)   R5        5
    C21(15)   R8        16
    C21(15)   R12       8
    C21(15)   R13       9
    C21(15)   R14       3
    C21(15)   R15       15
    C21(15)   R18       -1
    C21(15)   R19       19
    C21(15)   R21       15
    C21(15)   R23       8
    C21(15)   R24       12
    C22(13)   OBJ       -5
    C22(13)   R0        -9
    C22(13)   R3        10
    C22(13)   R5        3
    C22(13)   R8        17
    C22(13)   R11       19
    C22(13)   R12       17
    C22(13)   R13       10
    C22(13)   R14       7
    C22(13)   R16       16
    C22(13)   R17       10
    C22(13)   R20       5
    C22(13)   R21       4
    C22(13)   R24       7
    C23(16)   OBJ       9
    C23(16)   R0        -1
    C23(16)   R1        -1
    C23(16)   R3        14
    C23(16)   R4        5
    C23(16)   R5        1
    C23(16)   R6        5
    C23(16)   R8        16
    C23(16)   R9        5
    C23(16)   R10       5
    C23(16)   R12       4
    C23(16)   R13       9
    C23(16)   R17       13
    C23(16)   R19       16
    C23(16)   R20       19
    C23(16)   R22       6
    C23(16)   R24       11
    C24(10)   OBJ       9
    C24(10)   R0        -4
    C24(10)   R3        9
    C24(10)   R5        -1
    C24(10)   R7        18
    C24(10)   R10       14
    C24(10)   R11       13
    C24(10)   R16       18
    C24(10)   R19       12
    C24(10)   R20       18
    C24(10)   R22       2
    C25(1)    R1        1
    C26(1)    R2        1
    C27(1)    R3        1
    C28(1)    R4        1
    C29(1)    R5        1
    C30(1)    R6        1
    C31(1)    R7        1
    C32(1)    R8        1
    C33(1)    R9        1
    C34(1)    R10       1
    C35(1)    R11       1
    C36(1)    R12       1
    C37(1)    R13       1
    C38(1)    R14       1
    C39(1)    R15       1
    C40(1)    R16       1
    C41(1)    R17       1
    C42(1)    R18       1
    C43(1)    R19       1
    C44(1)    R20       1
    C45(1)    R21       1
    C46(1)    R22       1
    C47(1)    R23       1
    C48(1)    R24       1
    C49(1)    R25       1
RHS
    RHS1      R0        5.2718319832231361e+02
    RHS1      R1        72
    RHS1      R2        95
    RHS1      R3        94
    RHS1      R4        51
    RHS1      R5        52
    RHS1      R6        72
    RHS1      R7        76
    RHS1      R8        70
    RHS1      R9        85
    RHS1      R10       81
    RHS1      R11       75
    RHS1      R12       52
    RHS1      R13       87
    RHS1      R14       92
    RHS1      R15       96
    RHS1      R16       95
    RHS1      R17       89
    RHS1      R18       78
    RHS1      R19       78
    RHS1      R20       71
    RHS1      R21       50
    RHS1      R22       86
    RHS1      R23       76
    RHS1      R24       80
    RHS1      R25       3
BOUNDS
 UP BND1      I0(8)     2
 UP BND1      I1(9)     2
 UP BND1      I2(11)    2
 UP BND1      I3(5)     2
 UP BND1      I4(5)     2
 UP BND1      I5(10)    2
 UP BND1      I6(8)     2
 UP BND1      I7(8)     2
 UP BND1      I8(6)     2
 UP BND1      I9(7)     2
ENDATA
